% File represents an instance of a Composite Structure problem to be solved by a CP framework
% Created on 2025-03-25 14:05:14.227
T = 58;
n = 16;
m = 24;
edges = [(2, 1),
(6, 5),
(9, 10),
(14, 13),
(3, 2),
(7, 6),
(10, 11),
(15, 14),
(4, 3),
(8, 7),
(12, 11),
(16, 15),
(1, 5),
(9, 5),
(9, 13),
(2, 6),
(10, 6),
(10, 14),
(3, 7),
(11, 7),
(11, 15),
(8, 4),
(8, 12),
(16, 12)];
counts = [|6, 2, 20, 14,
|6, 4, 21, 14,
|6, 5, 24, 14,
|6, 5, 24, 15,
|6, 2, 20, 13,
|6, 2, 21, 13,
|6, 5, 23, 14,
|6, 5, 28, 19,
|7, 5, 24, 15,
|6, 5, 24, 15,
|6, 5, 24, 14,
|6, 5, 25, 14,
|6, 5, 16, 14,
|6, 5, 17, 14,
|6, 5, 23, 14,
|6, 10, 26, 16|];
